InboundTrucks  = 40;
OutboundTrucks = 20;
InboundDoors   = 6;
OutboundDoors  = 6;
ReleaseTime    = [100,86,10,114,111,72,73,68,62,61,16,112,102,82,40,82,101,82,108,104,12,82,107,24,19,33,73,6,89,99,32,50,112,100,29,106,80,51,9,34];
UnloadTime     = [11,22,42,23,21,31,20,15,45,39,33,18,41,39,10,13,25,17,24,35,27,42,32,12,20,39,16,37,45,20,23,24,16,13,23,11,43,28,19,25];
LoadTime       = [20,23,15,19,8,30,6,18,21,7,29,17,23,8,27,6,13,17,21,14];
TransferTime   = [| 0,0,0,0,0,16,0,0,16,0,0,0,0,0,29,0,29,0,18,0 | 0,0,0,12,0,0,36,0,0,0,0,0,0,0,32,0,0,0,0,0 | 0,0,0,34,0,0,0,13,0,0,48,0,0,0,0,0,0,0,0,0 | 48,27,10,0,0,0,27,0,0,26,0,0,0,0,35,0,0,0,19,0 | 0,0,0,0,17,0,0,0,35,0,19,11,0,44,0,0,0,0,0,0 | 24,0,0,0,0,0,38,10,37,0,45,0,0,0,0,0,0,0,0,0 | 28,0,0,39,0,0,50,20,0,0,0,0,23,25,0,10,28,0,28,0 | 0,0,0,0,0,0,27,0,0,0,0,0,19,0,0,0,0,0,0,0 | 25,0,0,0,14,0,0,47,0,0,16,0,0,0,0,0,0,45,0,44 | 0,47,12,0,22,0,20,0,0,0,26,0,0,0,0,0,0,0,0,40 | 0,0,0,0,43,0,0,10,0,0,36,0,0,0,42,12,27,0,38,0 | 40,0,0,0,13,0,0,0,20,0,0,0,0,0,0,0,0,0,37,0 | 10,0,0,0,0,0,23,11,0,18,0,0,0,0,0,0,16,0,0,0 | 0,38,0,0,0,0,0,15,33,0,0,19,0,0,38,43,0,0,0,14 | 34,0,0,0,0,0,0,0,0,0,0,0,32,50,0,0,0,0,34,0 | 0,0,0,0,0,0,15,0,35,0,24,0,0,0,0,0,0,0,45,0 | 46,0,0,0,0,0,0,0,0,33,39,0,0,38,0,0,0,0,0,0 | 50,0,49,0,0,0,28,0,37,0,15,46,0,0,0,19,0,0,0,0 | 11,0,0,0,24,0,0,0,0,0,0,0,0,30,0,0,26,11,0,0 | 0,0,0,0,0,26,0,46,29,41,44,40,0,0,0,41,0,40,0,0 | 0,38,16,29,0,0,0,0,0,24,0,0,0,46,0,0,0,0,0,0 | 0,18,0,0,0,0,0,0,0,0,0,0,0,0,0,0,10,0,0,19 | 0,50,0,0,0,0,0,0,0,0,0,50,0,43,0,0,0,0,0,0 | 23,39,0,0,0,0,0,0,41,27,20,0,0,0,0,31,0,0,0,0 | 0,0,0,0,0,14,0,0,0,0,0,29,0,0,47,0,0,0,26,0 | 0,27,0,0,0,0,30,28,0,0,0,47,0,0,42,0,0,0,0,0 | 22,0,0,0,0,45,0,30,42,0,0,0,21,25,0,0,0,0,11,0 | 0,0,0,0,0,0,0,0,30,21,0,38,0,0,0,0,0,20,0,0 | 0,0,0,0,40,0,0,0,0,22,18,0,43,0,0,0,0,0,34,0 | 0,17,0,0,0,0,0,10,0,0,10,32,0,0,44,42,0,0,0,15 | 0,0,0,0,0,0,0,0,0,0,0,0,0,0,0,36,40,0,0,0 | 0,0,0,0,26,11,0,0,0,22,0,27,0,0,0,0,0,0,0,20 | 0,0,0,0,0,0,0,0,0,24,0,0,33,0,0,0,0,42,0,0 | 0,0,0,0,0,33,0,0,0,0,0,0,0,0,0,0,0,0,49,0 | 0,0,0,0,0,31,0,0,0,0,0,0,0,50,0,23,35,0,0,36 | 0,0,0,0,0,29,0,39,0,0,0,10,0,0,0,18,0,0,0,46 | 49,0,0,0,0,29,33,0,34,41,0,0,0,34,0,20,18,41,0,0 | 34,0,31,0,0,0,0,0,0,0,35,0,0,14,0,0,0,0,0,0 | 0,0,0,0,0,0,0,0,19,0,0,23,24,0,0,0,0,0,0,50 | 0,0,30,25,0,0,0,29,20,49,0,0,0,0,0,0,0,0,0,49 |];
